; benchmark generated from python API
(set-info :status unknown)
(declare-datatypes ((RealState 0)) (((RMk1 (rval1 Real)) (RMk2 (rval2 Real)))))
 (assert
 (exists ((|v11:0_st| RealState) (val!6684 Real) )(exists ((|v10:1_st| RealState) (val!6685 Real) )(exists ((|v9:2_st| RealState) (val!6686 Real) )(exists ((|v8:3_st| RealState) (val!6687 Real) )(forall ((|v7:4| Real) )(forall ((|v6:5| Real) )(forall ((|v5:6| Real) )(forall ((|v4:7| Real) )(exists ((|v3:8_st| RealState) (val!6688 Real) )(exists ((|v2:9_st| RealState) (val!6689 Real) )(exists ((|v1:10_st| RealState) (val!6690 Real) )(exists ((|v0:11_st| RealState) (val!6691 Real) )(let ((?x599 (- 6.0)))
 (let ((?x721 (rval2 |v0:11_st|)))
 (let ((?x2466 (* 19.0 ?x721)))
 (let ((?x1477 (- 5.0)))
 (let ((?x107 (* ?x1477 ?x721)))
 (let ((?x71 (- 9.0)))
 (let ((?x1543 (+ (+ (* (- 8.0) |v4:7|) (* (- 4.0) |v7:4|)) (* 11.0 (rval2 |v8:3_st|)))))
 (let (($x2129 (and (<= (+ ?x1543 (* 2.0 (rval2 |v1:10_st|))) ?x71) (<= (+ (+ (+ ?x107 (* 15.0 (rval2 |v3:8_st|))) ?x107) ?x2466) ?x599))))
 (let ((?x3138 (rval2 |v1:10_st|)))
 (let ((?x1419 (* 5.0 ?x3138)))
 (let ((?x347 (+ (+ (+ (* ?x71 (rval2 |v10:1_st|)) (* 12.0 |v6:5|)) ?x1419) (* (- 11.0) (rval2 |v9:2_st|)))))
 (let ((?x1642 (- 18.0)))
 (let ((?x2760 (* 3.0 ?x721)))
 (let ((?x2392 (+ (+ (+ (* (- 15.0) (rval2 |v9:2_st|)) (* 6.0 (rval2 |v10:1_st|))) ?x2760) (* 16.0 ?x721))))
 (let ((?x2749 (- 17.0)))
 (let ((?x3071 (rval2 |v8:3_st|)))
 (let ((?x1750 (* 14.0 ?x3071)))
 (let ((?x3147 (rval2 |v9:2_st|)))
 (let ((?x3004 (* 8.0 ?x3147)))
 (let ((?x1499 (+ (+ (+ (* 10.0 (rval2 |v11:0_st|)) (* 8.0 (rval2 |v10:1_st|))) ?x3004) ?x1750)))
 (let ((?x1794 (+ (+ (* (- 10.0) (rval2 |v2:9_st|)) (* (- 8.0) |v6:5|)) (* ?x1477 ?x3147))))
 (let (($x2952 (and (<= (+ ?x1794 (* (- 16.0) (rval2 |v11:0_st|))) 6.0) (<= ?x1499 ?x2749))))
 (let ((?x2387 (- 1.0)))
 (let ((?x352 (+ (+ (+ (* 12.0 ?x3071) (* (- 11.0) |v7:4|)) (* ?x1477 (rval2 |v11:0_st|))) ?x3071)))
 (let ((?x1709 (- 16.0)))
 (let ((?x3476 (* 4.0 |v4:7|)))
 (let (($x2415 (<= (+ (+ (+ (* 6.0 ?x3138) (* ?x2387 |v4:7|)) (rval2 |v2:9_st|)) ?x3476) ?x1709)))
 (let (($x70 (and (and (and $x2415 (<= ?x352 ?x2387)) $x2952) (and (and (<= ?x2392 ?x1642) (<= ?x347 16.0)) $x2129))))
 (let ((?x792 (* 11.0 |v4:7|)))
 (let ((?x2381 (+ (+ (+ (* 16.0 (rval2 |v11:0_st|)) (* 8.0 (rval2 |v3:8_st|))) ?x792) |v7:4|)))
 (let ((?x2626 (+ (+ (+ (* 3.0 |v4:7|) (* ?x71 |v7:4|)) (* 7.0 ?x3138)) (* ?x599 ?x3138))))
 (let ((?x2503 (- 3.0)))
 (let ((?x3270 (* ?x2503 ?x721)))
 (let ((?x126 (+ (+ (* (- 2.0) (rval2 |v11:0_st|)) (* 7.0 ?x3071)) (* 0.0 (rval2 |v10:1_st|)))))
 (let ((?x753 (+ (+ (* (- 7.0) |v7:4|) (* 3.0 (rval2 |v3:8_st|))) (* 18.0 (rval2 |v3:8_st|)))))
 (let (($x2897 (and (and (<= (+ ?x753 (* ?x1642 |v4:7|)) 10.0) (<= (+ ?x126 ?x3270) 16.0)) (and (<= ?x2626 3.0) (<= ?x2381 10.0)))))
 (let ((?x358 (* ?x599 |v6:5|)))
 (let ((?x1144 (+ (+ (+ (* 20.0 (rval2 |v2:9_st|)) (* 17.0 ?x3147)) (* (- 8.0) ?x3147)) ?x358)))
 (let ((?x1633 (- 7.0)))
 (let ((?x448 (* 12.0 ?x3138)))
 (let ((?x1415 (- 15.0)))
 (let ((?x1725 (* ?x1415 ?x3138)))
 (let (($x2110 (<= (+ (+ (+ (* ?x2749 (rval2 |v2:9_st|)) (* 3.0 (rval2 |v10:1_st|))) ?x1725) ?x448) ?x1633)))
 (let ((?x2096 (- 10.0)))
 (let ((?x3395 (+ (+ (+ (* ?x71 ?x3138) (* (- 4.0) ?x3071)) (* 6.0 (rval2 |v10:1_st|))) (* ?x2503 ?x3147))))
 (let ((?x796 (+ (+ (+ (* 0.0 |v6:5|) (* (- 19.0) |v6:5|)) (* (- 14.0) |v7:4|)) (* (- 8.0) ?x721))))
 (let (($x1190 (and (and (<= ?x796 12.0) (<= ?x3395 ?x2096)) (and $x2110 (<= ?x1144 18.0)))))
 (let (($x3424 (<= (+ (+ (+ (* 18.0 ?x3138) ?x3476) (* 5.0 ?x721)) (* ?x71 |v4:7|)) ?x1709)))
 (let ((?x1082 (+ (+ (+ (* (- 2.0) |v7:4|) (* 4.0 (rval2 |v2:9_st|))) (* 11.0 ?x721)) (* (- 19.0) |v4:7|))))
 (let ((?x961 (- 2.0)))
 (let ((?x3319 (* ?x961 ?x3071)))
 (let ((?x3333 (+ (+ (+ (* ?x2387 (rval2 |v3:8_st|)) (* 2.0 |v6:5|)) (* (- 8.0) |v5:6|)) ?x3319)))
 (let ((?x1655 (+ (+ (+ (* ?x2096 |v5:6|) (* ?x1709 (rval2 |v2:9_st|))) (* ?x2749 (rval2 |v10:1_st|))) ?x358)))
 (let (($x636 (or (and (<= ?x1655 9.0) (<= ?x3333 ?x2096)) (and (<= ?x1082 4.0) $x3424))))
 (let ((?x147 (+ (+ (+ (* ?x71 ?x3071) (* 14.0 (rval2 |v3:8_st|))) ?x1725) (* (- 8.0) (rval2 |v11:0_st|)))))
 (let ((?x2572 (- 4.0)))
 (let ((?x1466 (* 17.0 ?x3147)))
 (let ((?x2573 (+ (+ (* 9.0 (rval2 |v11:0_st|)) (* 19.0 |v7:4|)) (* ?x1642 (rval2 |v11:0_st|)))))
 (let ((?x273 (rval2 |v2:9_st|)))
 (let ((?x1578 (* 12.0 ?x273)))
 (let ((?x2900 (+ (+ (+ (* 4.0 ?x3138) (* 9.0 (rval2 |v11:0_st|))) (* 18.0 |v6:5|)) ?x1578)))
 (let ((?x3150 (* 4.0 ?x273)))
 (let ((?x1605 (* 20.0 ?x3071)))
 (let ((?x2447 (+ (+ (+ (* 2.0 (rval2 |v11:0_st|)) (* 19.0 (rval2 |v10:1_st|))) ?x1605) ?x3150)))
 (let (($x311 (and (and (<= ?x2447 12.0) (<= ?x2900 17.0)) (and (<= (+ ?x2573 ?x1466) ?x2572) (<= ?x147 5.0)))))
 (let ((?x2348 (- 20.0)))
 (let ((?x393 (* ?x71 |v4:7|)))
 (let ((?x1319 (- 13.0)))
 (let ((?x1590 (* ?x1319 |v6:5|)))
 (let (($x2974 (<= (+ (+ (+ (* (- 19.0) |v7:4|) (* 0.0 (rval2 |v11:0_st|))) ?x1590) ?x393) ?x2348)))
 (let ((?x2946 (- 12.0)))
 (let ((?x2302 (* ?x2946 ?x273)))
 (let ((?x2250 (rval2 |v10:1_st|)))
 (let ((?x1363 (* 15.0 ?x2250)))
 (let (($x2407 (<= (+ (+ (+ (* 6.0 (rval2 |v11:0_st|)) (* ?x2096 (rval2 |v11:0_st|))) ?x1363) ?x2302) ?x1642)))
 (let ((?x2711 (* 7.0 ?x3071)))
 (let ((?x90 (+ (+ (+ (* 2.0 ?x273) (* 8.0 |v5:6|)) (* 16.0 (rval2 |v3:8_st|))) ?x2711)))
 (let (($x2514 (<= (+ (+ (+ (* ?x2387 ?x721) ?x2711) (* 7.0 ?x3147)) (* 8.0 ?x3071)) 0.0)))
 (let ((?x2947 (* 16.0 |v5:6|)))
 (let (($x3178 (<= (+ (+ (+ (* 19.0 ?x3138) (* 14.0 ?x273)) (* 0.0 |v7:4|)) ?x2947) ?x2387)))
 (let ((?x415 (* 12.0 ?x3071)))
 (let (($x1229 (<= (+ (+ (+ (* ?x599 ?x3071) (* ?x1642 |v5:6|)) (* 6.0 ?x721)) ?x415) 4.0)))
 (let ((?x2884 (* ?x599 ?x273)))
 (let (($x502 (<= (+ (+ (+ (* ?x2503 ?x273) (* 18.0 ?x3071)) (* ?x2946 ?x3071)) ?x2884) ?x961)))
 (let (($x934 (or $x502 (<= (+ (+ (+ (* (- 8.0) |v4:7|) ?x3270) (* ?x1477 ?x2250)) ?x2947) ?x1633))))
 (let (($x1835 (and (and $x934 (and $x1229 $x3178)) (and (and $x2514 (<= ?x90 20.0)) (and $x2407 $x2974)))))
 (let ((?x1681 (* ?x2503 ?x2250)))
 (let ((?x297 (+ (+ (+ (* ?x1319 ?x2250) (* ?x2946 (rval2 |v3:8_st|))) (* (- 14.0) |v6:5|)) ?x1681)))
 (let ((?x133 (+ (+ (+ (* 3.0 |v5:6|) (* 15.0 ?x3147)) (* 14.0 (rval2 |v3:8_st|))) (* 14.0 ?x3147))))
 (let ((?x936 (* 14.0 |v4:7|)))
 (let ((?x2922 (+ (+ (+ (* 20.0 ?x721) (* ?x599 ?x3147)) (* 14.0 (rval2 |v3:8_st|))) ?x936)))
 (let ((?x1774 (- 11.0)))
 (let ((?x887 (* 5.0 ?x3147)))
 (let (($x1287 (<= (+ (+ (+ (* ?x2749 ?x3147) (* 10.0 |v7:4|)) (* 5.0 |v6:5|)) ?x887) ?x1774)))
 (let (($x689 (or (and $x1287 (<= ?x2922 ?x961)) (and (<= ?x133 8.0) (<= ?x297 12.0)))))
 (let ((?x11 (+ (+ (+ (* 10.0 ?x721) (* ?x1709 (rval2 |v3:8_st|))) (* ?x1319 |v4:7|)) (* 9.0 |v5:6|))))
 (let ((?x2649 (+ (+ (+ (* 6.0 |v7:4|) ?x3319) (* ?x2749 (rval2 |v3:8_st|))) (* ?x1709 ?x3071))))
 (let ((?x2397 (rval2 |v3:8_st|)))
 (let ((?x803 (* 10.0 ?x2397)))
 (let (($x1211 (<= (+ (+ (+ (* ?x1633 ?x3138) (* ?x1477 |v4:7|)) (* ?x1319 ?x3138)) ?x803) 2.0)))
 (let ((?x1099 (+ (+ (+ (* ?x599 ?x2397) (* ?x2946 |v7:4|)) (* 11.0 |v5:6|)) (* ?x1633 ?x721))))
 (let (($x779 (and (and (<= ?x1099 9.0) $x1211) (and (<= ?x2649 ?x1319) (<= ?x11 0.0)))))
 (let (($x2108 (<= (+ (+ (+ ?x936 (* ?x961 |v4:7|)) (* 17.0 |v7:4|)) (* ?x2503 ?x273)) ?x2572)))
 (let ((?x2697 (+ (+ (+ (* ?x599 ?x3071) (* ?x1642 ?x3147)) (* 16.0 ?x2397)) (* 2.0 ?x3147))))
 (let ((?x2217 (* 17.0 |v5:6|)))
 (let (($x2153 (<= (+ (+ (+ (* ?x2096 ?x3071) (* 8.0 ?x3138)) (* ?x2946 |v5:6|)) ?x2217) 2.0)))
 (let (($x231 (<= (+ (+ (+ (* ?x2503 |v7:4|) (* ?x1415 ?x3147)) (* 7.0 |v5:6|)) ?x936) 5.0)))
 (let (($x1407 (<= (+ (+ (+ (* ?x1415 ?x2250) ?x2302) (* 8.0 |v7:4|)) (* ?x2387 |v4:7|)) ?x961)))
 (let ((?x2842 (+ (+ (+ (* ?x1477 ?x273) (* 0.0 |v5:6|)) (* 11.0 ?x3147)) (* 17.0 ?x2397))))
 (let ((?x3362 (+ (+ (+ (* ?x2348 ?x3138) (* (- 14.0) (rval2 |v11:0_st|))) (* ?x71 |v7:4|)) (* 9.0 ?x2397))))
 (let ((?x385 (* 19.0 |v7:4|)))
 (let (($x1671 (<= (+ (+ (+ (* 0.0 |v4:7|) (* ?x961 ?x273)) (* 19.0 ?x3138)) ?x385) 10.0)))
 (let (($x847 (and (and (and $x1671 (<= ?x3362 ?x1319)) (and (<= ?x2842 ?x1709) $x1407)) (and (and $x231 $x2153) (and (<= ?x2697 6.0) $x2108)))))
 (let ((?x2425 (* 9.0 ?x2250)))
 (let (($x3199 (<= (+ (+ (+ (* ?x1319 ?x3071) (* 15.0 ?x273)) (* 19.0 ?x2397)) ?x2425) 15.0)))
 (let ((?x496 (- 19.0)))
 (let (($x1497 (<= (+ (+ (+ (* 0.0 |v4:7|) ?x1466) (* 6.0 ?x3071)) (* 6.0 ?x3071)) ?x496)))
 (let (($x1539 (<= (+ (+ (+ (* ?x1709 ?x3138) (* 9.0 ?x273)) ?x1419) (* (- 8.0) ?x2250)) 18.0)))
 (let ((?x2238 (* ?x2348 |v7:4|)))
 (let (($x482 (<= (+ (+ (+ (* ?x2387 ?x3147) (* ?x1477 ?x2250)) (* ?x1633 ?x273)) ?x2238) ?x2572)))
 (let ((?x2817 (+ (+ (+ (* ?x599 |v5:6|) (* 3.0 |v4:7|)) (* ?x2572 |v5:6|)) (* ?x2096 ?x2397))))
 (let ((?x1059 (+ (+ (+ (* ?x2946 (rval2 |v11:0_st|)) (* 11.0 |v6:5|)) (* ?x1415 ?x2397)) ?x2884)))
 (let ((?x3331 (+ (+ (+ (* ?x2348 (rval2 |v11:0_st|)) (* 17.0 ?x3071)) (* ?x1415 (rval2 |v11:0_st|))) ?x803)))
 (let ((?x2113 (* 0.0 |v7:4|)))
 (let ((?x2494 (+ (+ (+ (* ?x599 ?x3071) (* 11.0 ?x3147)) (* ?x1633 (rval2 |v11:0_st|))) ?x2113)))
 (let (($x240 (and (and (<= ?x2494 ?x1477) (<= ?x3331 13.0)) (and (<= ?x1059 ?x71) (<= ?x2817 19.0)))))
 (let ((?x217 (* ?x2096 ?x3071)))
 (let (($x3089 (<= (+ (+ (+ (* ?x2387 ?x273) (* 15.0 ?x3147)) (* 6.0 |v5:6|)) ?x217) ?x2572)))
 (let (($x1069 (<= (+ (+ (+ |v5:6| (* 0.0 ?x3138)) (* 12.0 ?x721)) (* 19.0 |v6:5|)) 17.0)))
 (let ((?x1496 (+ (+ (+ (* 14.0 (rval2 |v11:0_st|)) (* ?x496 |v7:4|)) (* ?x1477 ?x273)) ?x1681)))
 (let ((?x2059 (+ (+ (+ (* 6.0 ?x3147) (* ?x2387 ?x273)) (* 8.0 ?x3071)) (* (- 8.0) ?x3071))))
 (let (($x1019 (<= (+ (+ (+ ?x217 (* 7.0 |v5:6|)) (* 3.0 ?x3147)) (* ?x1633 ?x273)) 11.0)))
 (let ((?x564 (- 8.0)))
 (let ((?x566 (* 6.0 |v4:7|)))
 (let (($x532 (<= (+ (+ (+ (* ?x961 ?x721) (* ?x2749 |v6:5|)) (* 12.0 |v4:7|)) ?x566) ?x564)))
 (let (($x1351 (<= (+ (+ (+ ?x448 (* 17.0 ?x3071)) (* ?x2096 |v5:6|)) (* ?x1774 ?x2250)) 6.0)))
 (let ((?x2072 (- 14.0)))
 (let ((?x2577 (* 8.0 |v6:5|)))
 (let (($x3161 (<= (+ (+ (+ (* ?x1774 |v7:4|) (* ?x2348 |v6:5|)) (* 17.0 |v6:5|)) ?x2577) ?x2072)))
 (let (($x3246 (and (and (and $x3161 $x1351) (or $x532 $x1019)) (and (and (<= ?x2059 ?x1319) (<= ?x1496 ?x2572)) (and $x1069 $x3089)))))
 (let (($x1357 (and (and $x3246 (and $x240 (and (and $x482 $x1539) (and $x1497 $x3199)))) (and $x847 (and $x779 $x689)))))
 (let (($x2029 (and $x1357 (or (and $x1835 (and $x311 $x636)) (and (and $x1190 $x2897) $x70)))))
 (let (($x1161 (not (= |v0:11_st| (RMk1 val!6691)))))
 (let (($x1272 (not (= |v1:10_st| (RMk1 val!6690)))))
 (let (($x1346 (not (= |v2:9_st| (RMk1 val!6689)))))
 (let (($x2005 (not (= |v3:8_st| (RMk1 val!6688)))))
 (let (($x1367 (not (= |v8:3_st| (RMk1 val!6687)))))
 (let (($x3058 (not (= |v9:2_st| (RMk1 val!6686)))))
 (let (($x1294 (not (= |v10:1_st| (RMk1 val!6685)))))
 (let (($x2915 (not (= |v11:0_st| (RMk1 val!6684)))))
 (and $x2915 $x1294 $x3058 $x1367 $x2005 $x1346 $x1272 $x1161 $x2029))))))))))))))))))))))))))))))))))))))))))))))))))))))))))))))))))))))))))))))))))))))))))))))))))))))))))))))))))))))))))))))))))))))))))))))))))))))))
 )
 )
 )
 )
 )
 )
 )
 )
 )
 )
 )
 )
(check-sat)
